36 36
23
3 3 6 33
3 4 15 18
3 5 0 31
3 6 33 16
3 7 0 24
3 8 15 0
3 9 3 12
3 10 15 8
3 11 11 22
3 12 3 0
3 14 33 22
3 15 3 21
3 16 33 0
3 24 0 0
3 36 30 0
4 3 14 22
4 11 14 25
4 22 11 0
5 3 9 33
5 4 6 0
5 14 6 4
5 15 6 18
12 36 18 0
